feasible solution found by trivial heuristic after 0.0 seconds, objective value -1.000000e+05
presolving:
(round 1, fast)       35 del vars, 63 del conss, 0 add conss, 3 chg bounds, 7 chg sides, 14 chg coeffs, 0 upgd conss, 0 impls, 125 clqs
(round 2, fast)       412 del vars, 79 del conss, 0 add conss, 3 chg bounds, 7 chg sides, 14 chg coeffs, 0 upgd conss, 0 impls, 80 clqs
   (0.0s) running MILP presolver
   (0.0s) MILP presolver found nothing
(round 3, exhaustive) 412 del vars, 79 del conss, 0 add conss, 3 chg bounds, 7 chg sides, 14 chg coeffs, 2420 upgd conss, 0 impls, 80 clqs
   (0.0s) probing: 51/2758 (1.8%) - 0 fixings, 0 aggregations, 0 implications, 0 bound changes
   (0.0s) probing aborted: 50/50 successive totally useless probings
   (0.1s) symmetry computation started: requiring (bin +, int -, cont +), (fixed: bin -, int +, cont -)
   (0.1s) no symmetry present
presolving (4 rounds: 4 fast, 2 medium, 2 exhaustive):
 736 deleted vars, 143 deleted constraints, 0 added constraints, 3 tightened bounds, 0 added holes, 7 changed sides, 14 changed coefficients
 0 implications, 0 cliques
presolved problem has 2434 variables (2434 bin, 0 int, 0 impl, 0 cont) and 2356 constraints
   2356 constraints of type <logicor>
Presolving Time: 1.39

 time | node  | left  |LP iter|LP it/n|mem/heur|mdpt |vars |cons |rows |cuts |sepa|confs|strbr|  dualbound   | primalbound  |  gap   | compl. 
t 1.4s|     1 |     0 |     0 |     - | trivial|   0 |2434 |2356 |   0 |   0 |  0 |   0 |   0 | 1.684439e+04 | 1.448839e+04 |  16.26%| unknown
p 1.4s|     1 |     0 |     0 |     - |   locks|   0 |2434 |2356 |2356 |   0 |  0 |   0 |   0 | 1.684439e+04 | 1.634339e+04 |   3.07%| unknown
  1.4s|     1 |     0 |    93 |     - |    28M |   0 |2434 |2356 |2356 |   0 |  0 |   0 |   0 | 1.684439e+04 | 1.634339e+04 |   3.07%| unknown
  1.4s|     1 |     0 |   196 |     - |    30M |   0 |2434 |2356 |2374 |  18 |  1 |   0 |   0 | 1.683589e+04 | 1.634339e+04 |   3.01%| unknown
  1.5s|     1 |     0 |   239 |     - |    30M |   0 |2434 |2356 |2392 |  36 |  2 |   0 |   0 | 1.683289e+04 | 1.634339e+04 |   3.00%| unknown
  1.5s|     1 |     0 |   266 |     - |    30M |   0 |2434 |2356 |2403 |  47 |  3 |   0 |   0 | 1.682989e+04 | 1.634339e+04 |   2.98%| unknown
  1.5s|     1 |     0 |   313 |     - |    30M |   0 |2434 |2356 |2414 |  58 |  4 |   0 |   0 | 1.682714e+04 | 1.634339e+04 |   2.96%| unknown
  1.5s|     1 |     0 |   384 |     - |    31M |   0 |2434 |2356 |2425 |  69 |  5 |   0 |   0 | 1.682464e+04 | 1.634339e+04 |   2.94%| unknown
  1.5s|     1 |     0 |   390 |     - |    32M |   0 |2434 |2356 |2430 |  74 |  6 |   0 |   0 | 1.682464e+04 | 1.634339e+04 |   2.94%| unknown
  1.5s|     1 |     0 |   478 |     - |    32M |   0 |2434 |2356 |2440 |  84 |  7 |   0 |   0 | 1.682214e+04 | 1.634339e+04 |   2.93%| unknown
  1.6s|     1 |     0 |   530 |     - |    33M |   0 |2434 |2356 |2452 |  96 |  8 |   0 |   0 | 1.681989e+04 | 1.634339e+04 |   2.92%| unknown
  1.6s|     1 |     0 |   616 |     - |    33M |   0 |2434 |2356 |2465 | 109 |  9 |   0 |   0 | 1.681664e+04 | 1.634339e+04 |   2.90%| unknown
  1.6s|     1 |     0 |   643 |     - |    33M |   0 |2434 |2356 |2472 | 116 | 10 |   0 |   0 | 1.681539e+04 | 1.634339e+04 |   2.89%| unknown
  1.6s|     1 |     0 |   786 |     - |    33M |   0 |2434 |2356 |2480 | 124 | 11 |   0 |   0 | 1.681273e+04 | 1.634339e+04 |   2.87%| unknown
  1.6s|     1 |     0 |   801 |     - |    34M |   0 |2434 |2356 |2484 | 128 | 12 |   0 |   0 | 1.681173e+04 | 1.634339e+04 |   2.87%| unknown
 time | node  | left  |LP iter|LP it/n|mem/heur|mdpt |vars |cons |rows |cuts |sepa|confs|strbr|  dualbound   | primalbound  |  gap   | compl. 
  1.6s|     1 |     0 |   811 |     - |    34M |   0 |2434 |2356 |2488 | 132 | 13 |   0 |   0 | 1.681073e+04 | 1.634339e+04 |   2.86%| unknown
  1.7s|     1 |     0 |   833 |     - |    34M |   0 |2434 |2356 |2492 | 136 | 14 |   0 |   0 | 1.680964e+04 | 1.634339e+04 |   2.85%| unknown
  1.7s|     1 |     0 |   842 |     - |    35M |   0 |2434 |2356 |2495 | 139 | 15 |   0 |   0 | 1.680914e+04 | 1.634339e+04 |   2.85%| unknown
  1.7s|     1 |     0 |   857 |     - |    35M |   0 |2434 |2356 |2503 | 147 | 16 |   0 |   0 | 1.680914e+04 | 1.634339e+04 |   2.85%| unknown
  1.7s|     1 |     0 |   886 |     - |    35M |   0 |2434 |2356 |2500 | 155 | 17 |   0 |   0 | 1.680814e+04 | 1.634339e+04 |   2.84%| unknown
  1.7s|     1 |     0 |   953 |     - |    36M |   0 |2434 |2356 |2508 | 163 | 18 |   0 |   0 | 1.680689e+04 | 1.634339e+04 |   2.84%| unknown
  1.7s|     1 |     0 |  1011 |     - |    36M |   0 |2434 |2356 |2516 | 171 | 19 |   0 |   0 | 1.680539e+04 | 1.634339e+04 |   2.83%| unknown
  1.8s|     1 |     0 |  1033 |     - |    36M |   0 |2434 |2356 |2521 | 176 | 20 |   0 |   0 | 1.680439e+04 | 1.634339e+04 |   2.82%| unknown
  3.3s|     1 |     2 |  1124 |     - |    36M |   0 |2434 |2356 |2521 | 176 | 22 |   0 |  46 | 1.678339e+04 | 1.634339e+04 |   2.69%| unknown
*11.8s|    46 |    45 | 10077 | 201.0 |strongbr|  19 |2434 |2356 |2486 | 318 |  1 |   0 | 948 | 1.676339e+04 | 1.646139e+04 |   1.83%| unknown
 13.9s|   100 |    58 | 17974 | 171.1 |    42M |  20 |2434 |2369 |2539 | 391 |  0 |  13 |1235 | 1.676339e+04 | 1.646139e+04 |   1.83%| unknown
*17.3s|   186 |   130 | 39583 | 208.4 |    LP  |  20 |2434 |2373 |2576 | 812 |  1 |  17 |1442 | 1.674914e+04 | 1.646439e+04 |   1.73%| unknown
 17.5s|   200 |   132 | 41808 | 204.9 |    52M |  20 |2434 |2373 |2568 | 812 |  0 |  17 |1460 | 1.674914e+04 | 1.646439e+04 |   1.73%| unknown
 21.1s|   300 |   186 | 64186 | 211.2 |    59M |  20 |2434 |2374 |2660 |1428 |  0 |  18 |1672 | 1.674914e+04 | 1.646439e+04 |   1.73%| unknown
*24.0s|   362 |   156 | 83731 | 229.1 |    LP  |  20 |2434 |2374 |2634 |1801 |  1 |  18 |1812 | 1.674339e+04 | 1.651939e+04 |   1.36%| unknown
 time | node  | left  |LP iter|LP it/n|mem/heur|mdpt |vars |cons |rows |cuts |sepa|confs|strbr|  dualbound   | primalbound  |  gap   | compl. 
*25.7s|   378 |   119 | 92807 | 243.4 |    LP  |  20 |2434 |2376 |2699 |1973 |  1 |  20 |1853 | 1.673864e+04 | 1.654639e+04 |   1.16%|   7.61%
 26.9s|   400 |   131 |100989 | 250.5 |    68M |  20 |2434 |2377 |2643 |1973 |  1 |  21 |1916 | 1.673864e+04 | 1.654639e+04 |   1.16%|   9.32%
 29.9s|   500 |   137 |124743 | 247.9 |    68M |  20 |2434 |2384 |2656 |1973 |  1 |  28 |2119 | 1.673814e+04 | 1.654639e+04 |   1.16%|  13.86%
 34.3s|   600 |   205 |162002 | 268.7 |    68M |  20 |2434 |2388 |2634 |1973 |  1 |  32 |2307 | 1.672327e+04 | 1.654639e+04 |   1.07%|  18.31%
 39.2s|   700 |   275 |204722 | 291.4 |    69M |  20 |2434 |2399 |2645 |1973 |  0 |  43 |2522 | 1.669714e+04 | 1.654639e+04 |   0.91%|  24.73%
 43.8s|   800 |   293 |241498 | 301.0 |    69M |  20 |2434 |2414 |2644 |1973 |  1 |  58 |2769 | 1.666764e+04 | 1.654639e+04 |   0.73%|  33.93%
 47.6s|   900 |   275 |269790 | 299.0 |    69M |  20 |2434 |2424 |2646 |1973 |  0 |  68 |3041 | 1.665239e+04 | 1.654639e+04 |   0.64%|  41.41%
 52.5s|  1000 |   245 |302119 | 301.4 |    69M |  20 |2434 |2459 |2651 |1973 |  1 | 103 |3589 | 1.664802e+04 | 1.654639e+04 |   0.61%|  50.36%
 55.2s|  1100 |   193 |333876 | 302.9 |    69M |  20 |2434 |2498 |2661 |1973 |  0 | 142 |3697 | 1.663464e+04 | 1.654639e+04 |   0.53%|  60.11%
 58.0s|  1200 |   117 |367182 | 305.4 |    69M |  20 |2434 |2529 |2659 |1973 |  1 | 173 |3755 | 1.662064e+04 | 1.654639e+04 |   0.45%|  72.72%
 60.2s|  1300 |    74 |393438 | 302.1 |    69M |  20 |2434 |2547 |2647 |1973 |  1 | 191 |3807 | 1.661627e+04 | 1.654639e+04 |   0.42%|  81.36%
 64.0s|  1400 |    13 |435802 | 310.8 |    70M |  20 |2434 |2552 |2822 |1973 |  0 | 197 |3820 | 1.659689e+04 | 1.654639e+04 |   0.31%|  97.80%

SCIP Status        : problem is solved [optimal solution found]
Solving Time (sec) : 64.39
Solving Nodes      : 1413
Primal Bound       : +1.65463931973087e+04 (63 solutions)
Dual Bound         : +1.65463931973087e+04
Gap                : 0.00 %
Solve Status: optimal
Solve Time: 64.39 seconds
